940.27 0
0 3 79 33 81 78 34 35 71 65 66 20 9 51 69 0
0 18 46 36 49 64 63 90 32 30 70 10 11 19 62 88 0
0 31 1 50 76 77 68 80 29 24 55 25 67 39 0
0 26 21 72 75 23 56 4 54 12 28 0
0 6 99 93 5 84 17 45 8 47 48 7 82 83 60 0
0 53 58 13 2 57 41 22 74 73 40 0
0 94 95 59 98 85 61 16 91 100 37 92 0
0 27 52 89 96 97 87 42 15 43 14 44 38 86 0